&CONTROL
    calculation = "scf"
    verbosity = 'high'
    max_seconds =  8.64000e+04
    outdir      = "./"
    forc_conv_thr = 1.0000e-03
    prefix      = "espresso"
    pseudo_dir  = "/opt/QEpot/SSSP_efficiency_pseudos/"
    title       = "si(SCF)"
    wf_collect  = .TRUE.
    wfcdir      = "./"
/
&system
    ibrav=  2, celldm(1) =10.20, nat=  2, ntyp= 1,
    ecutwfc =24.0,
 /
 &electrons
    conv_thr =  1.0d-8
 /
ATOMIC_SPECIES
 Si  28.086  Si.pbe-n-rrkjus_psl.1.0.0.UPF
 
ATOMIC_POSITIONS (alat)
 Si 0.00 0.00 0.00
 Si 0.25 0.25 0.25
K_POINTS AUTOMATIC
1 1 2 1 1 1 


